RT is False
Default write of storage_offers_DA.csv just to have a file (but constraint should be inactive)
Reading model...
...model read.
creating competitive generators file...
...competitive generators recorded.
Loading data...
.. day-ahead data read.
Compiling instance...
...instance created.
Creating Offer Mitigation (model will solve as dispatch if TRUE)...
NOTE: storage offers will not be mitigated
...storage offer mitigation file created
Converting model to MPEC...
...converted
NOTE: initial MIP solve with only storage competitive to get feasible solution
Solving...

Welcome to IBM(R) ILOG(R) CPLEX(R) Interactive Optimizer 12.9.0.0
  with Simplex, Mixed Integer & Barrier Optimizers
5725-A06 5725-A29 5724-Y48 5724-Y49 5724-Y54 5724-Y55 5655-Y21
Copyright IBM Corp. 1988, 2019.  All Rights Reserved.

Type 'help' for a list of available commands.
Type 'help' followed by a command name for more
information on commands.

CPLEX> Logfile 'cplex.log' closed.
Logfile 'C:\Users\llavin\Desktop\test919\logs\tmpgi88kudg.cplex.log' open.
CPLEX> New value for parallel optimization mode: -1
CPLEX> New value for mixed integer optimality gap tolerance: 0.01
CPLEX> New value for integrality tolerance: 1e-09
CPLEX> New value for feasibility tolerance: 0.01
CPLEX> New value for deterministic time limit in ticks: 75000
CPLEX> Problem 'C:\Users\llavin\Desktop\test919\logs\tmp9ecm7m3o.pyomo.lp' read.
Read time = 0.23 sec. (14.73 ticks)
CPLEX> Problem name         : C:\Users\llavin\Desktop\test919\logs\tmp9ecm7m3o.pyomo.lp
Objective sense      : Maximize
Variables            :   53805  [Nneg: 1,  Box: 22000,  Free: 4464,
                                 Binary: 27340]
Objective nonzeros   :    9123
Linear constraints   :  123205  [Less: 41346,  Greater: 59096,  Equal: 22763]
  Nonzeros           :  291847
  RHS nonzeros       :   67585

Variables            : Min LB: -5000.000        Max UB: 1000000.       
Objective nonzeros   : Min   : 0.1000000        Max   : 2500.000       
Linear constraints   :
  Nonzeros           : Min   : 0.1000000        Max   : 1000000.       
  RHS nonzeros       : Min   : 0.1000000        Max   : 1000000.       
CPLEX> CPXPARAM_Parallel                                -1
CPXPARAM_Simplex_Tolerances_Feasibility          0.01
CPXPARAM_DetTimeLimit                            75000
CPXPARAM_MIP_Tolerances_MIPGap                   0.01
CPXPARAM_MIP_Tolerances_Integrality              1.0000000000000001e-09
Tried aggregator 3 times.
MIP Presolve eliminated 88278 rows and 18679 columns.
MIP Presolve added 3463 rows and 0 columns.
MIP Presolve modified 24929 coefficients.
Aggregator did 12957 substitutions.
Reduced MIP has 25433 rows, 21690 columns, and 72355 nonzeros.
Reduced MIP has 8574 binaries, 0 generals, 0 SOSs, and 0 indicators.
Presolve time = 0.30 sec. (176.40 ticks)
Probing fixed 405 vars, tightened 2973 bounds.
Probing time = 1.30 sec. (926.34 ticks)
Tried aggregator 2 times.
MIP Presolve eliminated 917 rows and 814 columns.
MIP Presolve modified 2307 coefficients.
Aggregator did 40 substitutions.
Reduced MIP has 24476 rows, 20836 columns, and 69587 nonzeros.
Reduced MIP has 8167 binaries, 0 generals, 0 SOSs, and 0 indicators.
Presolve time = 0.11 sec. (73.83 ticks)
Probing time = 0.05 sec. (16.34 ticks)
Clique table members: 6369.
MIP emphasis: balance optimality and feasibility.
MIP search method: dynamic search.
Parallel mode: opportunistic, using up to 32 threads.
Root relaxation solution time = 0.41 sec. (314.03 ticks)

        Nodes                                         Cuts/
   Node  Left     Objective  IInf  Best Integer    Best Bound    ItCnt     Gap

      0     0      168.4841  2198                    168.4841     7593         
      0     0      168.4841   610                   Cuts: 987     8050         
      0     0      168.4841   453                   Cuts: 681     8326         
      0     0      168.4841   359                   Cuts: 364     8473         
      0     0      168.4841   330                   Cuts: 132     8521         
      0     0      168.4841   316                    Cuts: 98     8538         
      0     0      168.4841   311                    Cuts: 53     8547         
      0     0      168.4841   312                    Cuts: 48     8551         
      0     4      132.2904   308                 Impl Bds: 3     8570         
Elapsed time = 10.86 sec. (6483.76 ticks, tree = 0.02 MB, solutions = 0)
    580   117      145.4216   296                    156.1885    12269         
    910   277       57.5298   288                    156.1885    16718         
   1625   689      145.3951   241                    156.1885    25059         
   2656   877      123.0106   232                    156.1885    27563         
   3876  2572    -3714.4579   202                    156.1885    31728         
   4703  2251   -10738.6043   229                    156.1885    31282         
   5446  3242       57.5298   221                    156.1885    31999         
   6484  5142      118.5912   185                    156.1885    32975         
   7745  6340      118.6874   194                    156.1885    33384         
*  8751  4922      integral     0      168.4577      156.1885    32781   -7.28%
Elapsed time = 24.34 sec. (8934.44 ticks, tree = 91.21 MB, solutions = 1)

Clique cuts applied:  27
Implied bound cuts applied:  52
Flow cuts applied:  711
Mixed integer rounding cuts applied:  34
Gomory fractional cuts applied:  30

Root node processing (before b&c):
  Real time             =    9.55 sec. (6461.53 ticks)
Parallel b&c, 32 threads:
  Real time             =   15.27 sec. (3180.52 ticks)
  Sync time (average)   =    0.52 sec.
  Wait time (average)   =    0.00 sec.
                          ------------
Total (root+branch&cut) =   24.81 sec. (9642.05 ticks)

Solution pool: 2 solutions saved.

MIP - Integer optimal solution:  Objective =  1.6845765184e+02
Solution time =   24.83 sec.  Iterations = 40646  Nodes = 9153
Deterministic time = 9642.20 ticks  (388.36 ticks/sec)

CPLEX> Incumbent solution written to file 'C:\Users\llavin\Desktop\test919\logs\tmpf33m2erj.cplex.sol'.
CPLEX> NOTE: no warmstart specified for MIP iteration, default behavior is true
NOTE: resolving with all competitive generators using storage-only solution to warmstart
Solving...

Welcome to IBM(R) ILOG(R) CPLEX(R) Interactive Optimizer 12.9.0.0
  with Simplex, Mixed Integer & Barrier Optimizers
5725-A06 5725-A29 5724-Y48 5724-Y49 5724-Y54 5724-Y55 5655-Y21
Copyright IBM Corp. 1988, 2019.  All Rights Reserved.

Type 'help' for a list of available commands.
Type 'help' followed by a command name for more
information on commands.

CPLEX> Logfile 'cplex.log' closed.
Logfile 'C:\Users\llavin\Desktop\test919\logs\tmpv7exfd_f.cplex.log' open.
CPLEX> New value for parallel optimization mode: -1
CPLEX> New value for mixed integer optimality gap tolerance: 0.01
CPLEX> New value for integrality tolerance: 1e-09
CPLEX> New value for feasibility tolerance: 0.01
CPLEX> New value for deterministic time limit in ticks: 75000
CPLEX> Problem 'C:\Users\llavin\Desktop\test919\logs\tmpd90bpqc3.pyomo.lp' read.
Read time = 0.25 sec. (14.75 ticks)
CPLEX> MIP start file 'C:\Users\llavin\Desktop\test919\logs\tmpb0c3u3dm.cplex.mst' read.
CPLEX> Problem name         : C:\Users\llavin\Desktop\test919\logs\tmpd90bpqc3.pyomo.lp
Objective sense      : Maximize
Variables            :   54525  [Nneg: 1,  Box: 22720,  Free: 4464,
                                 Binary: 27340]
Objective nonzeros   :    9819
Linear constraints   :  123205  [Less: 41346,  Greater: 59096,  Equal: 22763]
  Nonzeros           :  291847
  RHS nonzeros       :   67585

Variables            : Min LB: -5000.000        Max UB: 1000000.       
Objective nonzeros   : Min   : 0.1000000        Max   : 2500.000       
Linear constraints   :
  Nonzeros           : Min   : 0.1000000        Max   : 1000000.       
  RHS nonzeros       : Min   : 0.1000000        Max   : 1000000.       
CPLEX> CPXPARAM_Parallel                                -1
CPXPARAM_Simplex_Tolerances_Feasibility          0.01
CPXPARAM_DetTimeLimit                            75000
CPXPARAM_MIP_Tolerances_MIPGap                   0.01
CPXPARAM_MIP_Tolerances_Integrality              1.0000000000000001e-09
Warning:  No solution found from 1 MIP starts.
Retaining values of one MIP start for possible repair.
Tried aggregator 3 times.
MIP Presolve eliminated 88278 rows and 19399 columns.
MIP Presolve added 3463 rows and 0 columns.
MIP Presolve modified 24929 coefficients.
Aggregator did 12957 substitutions.
Reduced MIP has 25433 rows, 21690 columns, and 72355 nonzeros.
Reduced MIP has 8574 binaries, 0 generals, 0 SOSs, and 0 indicators.
Presolve time = 0.30 sec. (176.77 ticks)
Probing fixed 405 vars, tightened 2973 bounds.
Probing time = 1.27 sec. (926.34 ticks)
Tried aggregator 2 times.
MIP Presolve eliminated 917 rows and 814 columns.
MIP Presolve modified 2307 coefficients.
Aggregator did 40 substitutions.
Reduced MIP has 24476 rows, 20836 columns, and 69587 nonzeros.
Reduced MIP has 8167 binaries, 0 generals, 0 SOSs, and 0 indicators.
Presolve time = 0.09 sec. (73.84 ticks)
Probing time = 0.05 sec. (16.34 ticks)
Clique table members: 6369.
MIP emphasis: balance optimality and feasibility.
MIP search method: dynamic search.
Parallel mode: opportunistic, using up to 32 threads.
Root relaxation solution time = 0.50 sec. (366.14 ticks)

        Nodes                                         Cuts/
   Node  Left     Objective  IInf  Best Integer    Best Bound    ItCnt     Gap

      0     0    43710.2514  2222                  43710.2514     8024         
      0     0    43692.2092   597                   Cuts: 975     8461         
      0     0    43688.2489   439                   Cuts: 694     8723         
      0     0    43673.5955   330                   Cuts: 340     8860         
      0     0    43673.5955   310                    Cuts: 90     8898         
      0     0    43665.3429   297                    Cuts: 57     8919         
      0     0    43665.3429   294                    Cuts: 27     8926         
      0     0    43665.3429   292                    Cuts: 21     8929         
Repair heuristic found nothing.
      0    10    43636.6493   276                    Cuts: 12     8989         
Elapsed time = 11.94 sec. (6783.96 ticks, tree = 0.02 MB, solutions = 0)
    511    77    43322.3668   247                  43639.5521     9964         
    915   404    43328.6906   251                  43639.5521    15401         
   1334   894    43331.6755   225                  43639.5521    22791         
   2042  1237    43250.9945   228                  43639.5521    24699         
   2809  1883    43453.1603   219                  43639.5521    27554         
   3598  2471    43259.1760   192                  43639.5521    29983         
   4383  3022    43435.9308   177                  43639.5521    31369         
   5125  3889    -6337.0308   159                  43639.5521    32957         
   6237  5299    43589.2347   204                  43639.5521    33643         
*  7618+ 6144                        -6337.0308    43639.5521           788.64%
Elapsed time = 25.75 sec. (9260.85 ticks, tree = 52.72 MB, solutions = 13)
*  7713  4801      integral     0    43217.9866    43639.5521    33598    0.98%
*  8134  5825      integral     0    43218.5313    43639.5521    33780    0.97%
*  8220  5739      integral     0    43269.6814    43639.5521    33801    0.85%
*  8221  5564      integral     0    43435.9308    43639.5521    33699    0.47%

Clique cuts applied:  47
Cover cuts applied:  4
Implied bound cuts applied:  55
Flow cuts applied:  752
Mixed integer rounding cuts applied:  30
Gomory fractional cuts applied:  42

Root node processing (before b&c):
  Real time             =   10.28 sec. (6763.90 ticks)
Parallel b&c, 32 threads:
  Real time             =   15.84 sec. (2966.79 ticks)
  Sync time (average)   =    0.72 sec.
  Wait time (average)   =    0.00 sec.
                          ------------
Total (root+branch&cut) =   26.13 sec. (9730.69 ticks)

Solution pool: 13 solutions saved.

MIP - Integer optimal, tolerance (0.01/1e-06):  Objective =  4.3435930850e+04
Current MIP best bound =  4.3639552069e+04 (gap = 203.621, 0.47%)
Solution time =   26.17 sec.  Iterations = 35370  Nodes = 8349 (596)
Deterministic time = 9730.84 ticks  (371.80 ticks/sec)

CPLEX> Incumbent solution written to file 'C:\Users\llavin\Desktop\test919\logs\tmpvt9e_5x5.cplex.sol'.
CPLEX> Exporting results... 
